50
21226

35 567
596 408
435 379
767 623
462 788
816 355
7 266
976 925
327 675
310 267
951 9
879 908
656 995
746 9
681 16
500 847
382 607
270 502
963 287
937 318
89 364
317 688
106 800
451 447
948 72
590 872
533 626
188 559
75 553
965 877
227 541
525 712
90 206
491 642
995 916
751 777
595 833
361 476
322 191
911 806
208 896
746 195
86 660
421 759
812 541
948 374
22 841
577 192
285 539
612 689
